m = 5;
n = 6;
N=3;

wall = [|1,1,1,1,1,1|
             1,0,0,0,0,1|
             1,0,0,0,0,1|
             1,0,0,0,0,1|
             1,1,1,1,1,1|];
             
home =[|0,0,0,0,0,0|
              0,0,0,0,0,0|
              0,0,0,0,1,0|
              0,1,0,0,0,0|
              0,0,0,0,0,0|];
              
start = [|0,0,0,0,0,0|
              0,0,0,0,0,0|
              0,1,1,0,0,0|
              0,0,0,0,0,0|
              0,0,0,0,0,0|];
              
 Is=2;
 Js=2;